
$ Database file written 2012- 3-26
$ From database: USER                    
 ELEMENT /-   ELECTRON_GAS              0.0000E+00  0.0000E+00  0.0000E+00!
 ELEMENT VA   VACUUM                    0.0000E+00  0.0000E+00  0.0000E+00!
 ELEMENT FE   BCC(A2)                   5.5847E+01  0.0000E+00  6.5200E+00!
 ELEMENT O    1/2_MOLE_O2(G)            1.5999E+01  0.0000E+00  2.4502E+01!
 ELEMENT U    ORTHORHOMBIC(A20)         2.3803E+02  0.0000E+00  1.2000E+01!
 ELEMENT ZR   HCP(A3)                   9.1220E+01  0.0000E+00  9.3140E+00!
 
 SPECIES FE1                         FE!
 SPECIES FE1O0_5                     FE1O0.5!
 SPECIES FE1O1                       FE1O1!
 SPECIES FE1O1_5                     FE1O1.5!
 SPECIES FE1O3                       FE1O3!
 SPECIES FE1O4U1                     FE1O4U1!
 SPECIES FE1U6                       FE1U6!
 SPECIES FE1ZR2                      FE1ZR2!
 SPECIES FE1ZR3                      FE1ZR3!
 SPECIES FE2                         FE2!
 SPECIES FE2U1                       FE2U1!
 SPECIES FE2ZR1                      FE2ZR1!
 SPECIES FE3                         FE3!
 SPECIES FE333U250ZR417              FE333U250ZR417!
 SPECIES FE3O4                       FE3O4!
 SPECIES FE50U18ZR32                 FE50U18ZR32!
 SPECIES FE6U71ZR23                  FE6U71ZR23!
 SPECIES FE735ZR265                  FE735ZR265!
 SPECIES O0_5U1                      O0.5U1!
 SPECIES O0_5ZR1                     O0.5ZR1!
 SPECIES O1                          O!
 SPECIES O1U1                        O1U1!
 SPECIES O1ZR1                       O1ZR1!
 SPECIES O2                          O2!
 SPECIES O2U1                        O2U1!
 SPECIES O2ZR1                       O2ZR1!
 SPECIES O3                          O3!
 SPECIES O3U1                        O3U1!
 SPECIES O3ZR1                       O3ZR1!
 SPECIES O8U3                        O8U3!
 SPECIES O9U4                        O9U4!
 SPECIES U1                          U!
 SPECIES U1ZR2                       U1ZR2!
 SPECIES U2ZR1                       U2ZR1!
 SPECIES ZR1                         ZR!
 SPECIES ZR2                         ZR2!
 SPECIES ZR3                         ZR3!
 
 FUNCTION GZ10531    2.98150E+02  +400909.495+38.1932449*T-32.8261*T*LN(T)
     +.00908265*T**2-1.34845667E-06*T**3+108791.4*T**(-1);  9.00000E+02  Y
      +409481.002-51.1833459*T-19.84276*T*LN(T)+6.959445E-05*T**2
     -1.30682983E-07*T**3-976411.5*T**(-1);  2.40000E+03  Y
      +405736.262-46.6701708*T-20.12513*T*LN(T)-5.66549E-04*T**2
     -5.290265E-08*T**3+887592*T**(-1);  5.50000E+03  Y
      +517202.001-372.49067*T+18.70844*T*LN(T)-.00634452*T**2
     +1.038655E-07*T**3-55487750*T**(-1);  1.00000E+04  Y
      1000000;  1.00010E+04  N !
 FUNCTION GZ10533    2.98150E+02  +241501.965-46.1742717*T
     -28.4117031*T*LN(T)-.00855192866*T**2+1.50997073E-06*T**3
     +57679.3686*T**(-1);  8.00000E+02  Y
      +237160.413+14.348855*T-37.6472975*T*LN(T)+2.53807716E-04*T**2
     -7.00143587E-08*T**3+446016.492*T**(-1);  3.20000E+03  Y
      +247039.927-45.0126537*T-29.887316*T*LN(T)-.00207289167*T**2
     +5.08801595E-08*T**3-1074034.89*T**(-1);  6.00000E+03  Y
      1000000;  6.00100E+03  N !
 FUNCTION GZ10534    2.98150E+02  +503850.321+155.805303*T
     -48.0472101*T*LN(T)+.00451314474*T**2-1.38132583E-06*T**3
     +123625.762*T**(-1);  1.10000E+03  Y
      +485591.647+237.163146*T-57.3645694*T*LN(T)+7.83939917E-05*T**2
     +3.4084373E-07*T**3+4098996.04*T**(-1);  2.50000E+03  Y
      +499779.459+262.555424*T-62.4114107*T*LN(T)+.00532537933*T**2
     -1.3082792E-07*T**3-6839749.25*T**(-1);  6.00000E+03  Y
      1000000;  6.00100E+03  N !
 FUNCTION GZ10557    2.98150E+02  +243152.712-19.768354*T-21.1877899*T*LN(T)
     +3.11926574E-04*T**2-4.47431091E-08*T**3-39429.2147*T**(-1);  
     1.20000E+03  Y
      +242775.758-18.0297811*T-21.3935718*T*LN(T)+2.63074035E-04*T**2
     -2.10187475E-08*T**3+45566.4183*T**(-1);  4.20000E+03  Y
      +256153.267-62.6608011*T-15.9582301*T*LN(T)-7.22324717E-04*T**2
     +1.25020998E-08*T**3-6179930.64*T**(-1);  8.60000E+03  Y
      +196006.198+33.6663286*T-26.6223022*T*LN(T)+1.34977973E-04*T**2
     -6.53846644E-10*T**3+58777239.3*T**(-1);  2.00000E+04  Y
      1000000;  2.00010E+04  N !
 FUNCTION GZ10559    2.98150E+02  +17671.4801-20.9624978*T
     -32.5236172*T*LN(T)-.0219777687*T**2+5.73607005E-06*T**3
     +146388.233*T**(-1);  7.00000E+02  Y
      +9616.80473+136.49976*T-57.8036359*T*LN(T)+.00998258241*T**2
     -1.4229552E-06*T**3+534238.279*T**(-1);  1.70000E+03  Y
      +90573.6632-388.160865*T+12.7274829*T*LN(T)-.0180120433*T**2
     +7.1078333E-07*T**3-17309225.1*T**(-1);  4.00000E+03  Y
      -224300.295+669.975494*T-116.247621*T*LN(T)+.00553076374*T**2
     -9.61070303E-08*T**3+1.27443754E+08*T**(-1);  7.80000E+03  Y
      -39254.3053+258.29535*T-68.9301791*T*LN(T)+3.74194776E-04*T**2
     +6.11328921E-09*T**3;  1.20000E+04  Y
      1000000;  1.20010E+04  N !
 FUNCTION GZ10560    2.98150E+02  +78625.3355-219.614015*T
     +4.87907453*T*LN(T)-.0801192853*T**2+2.04447505E-05*T**3
     -105696.042*T**(-1);  7.00000E+02  Y
      +49802.1324+307.467483*T-79.1244855*T*LN(T)+.0229560972*T**2
     -2.41932799E-06*T**3+1589315.7*T**(-1);  1.40000E+03  Y
      +83859.7599+11.4627653*T-37.4808737*T*LN(T)+1.78726687E-04*T**2
     -7.84728056E-08*T**3-3698206.99*T**(-1);  4.50000E+03  Y
      1000000;  6.00100E+03  N !
 FUNCTION GZ10561    2.98150E+02  -7060.28827-49.1528321*T
     -22.5882961*T*LN(T)-.00979479607*T**2+1.23530599E-06*T**3
     -71500.1156*T**(-1);  1.10000E+03  Y
      -13083.0019+25.0716161*T-33.6154863*T*LN(T)-.00118136362*T**2
     +1.1634397E-08*T**3+510204.072*T**(-1);  3.50000E+03  Y
      +13373.0553-49.9667877*T-24.6523919*T*LN(T)-.00261917175*T**2
     +5.98963371E-08*T**3-14469647.5*T**(-1);  8.60000E+03  Y
      -396106.347+609.10011*T-97.5368511*T*LN(T)+.00310820001*T**2
     -2.39516164E-08*T**3+4.1383392E+08*T**(-1);  1.70000E+04  Y
      -146095.713+343.760498*T-69.6503482*T*LN(T)+.00174884163*T**2
     -1.17280957E-08*T**3;  2.00000E+04  Y
      1000000;  2.00010E+04  N !
 FUNCTION GZ10564    2.98150E+02  -494325.001+92.729846*T-50.0730568*T*LN(T)
     -.0340331309*T**2+1.00480945E-05*T**3+283692.502*T**(-1);  6.00000E+02  
     Y
      -504283.396+297.904547*T-83.4949553*T*LN(T)+.0127909269*T**2
     -1.77025012E-06*T**3+780610.093*T**(-1);  1.30000E+03  Y
      -476465.15+50.2181548*T-48.4966155*T*LN(T)-.00700894533*T**2
     +3.46722736E-07*T**3-3431526.2*T**(-1);  3.20000E+03  Y
      -552675.755+356.284086*T-86.7783311*T*LN(T)+.00164274667*T**2
     -2.32556074E-08*T**3+25457337.8*T**(-1);  9.00000E+03  Y
      -524477.458+300.466027*T-80.4266568*T*LN(T)+9.96277654E-04*T**2
     -1.10882325E-08*T**3;  1.20000E+04  Y
      1000000;  1.20010E+04  N !
 FUNCTION GZ10565    2.98150E+02  -414401.47+31.5071944*T-42.6728679*T*LN(T)
     -.0124176063*T**2+1.85761544E-06*T**3+294517.549*T**(-1);  1.10000E+03  
     Y
      -429486.833+182.002676*T-64.479478*T*LN(T)+.00273768107*T**2
     -2.20194004E-07*T**3+2442191.43*T**(-1);  4.50000E+03  Y
      1000000;  6.00100E+03  N !
 FUNCTION GZ10566    2.98150E+02  +131844.017-61.9932433*T
     -23.6380297*T*LN(T)-.0332979659*T**2+6.04687914E-06*T**3
     +40072.2525*T**(-1);  7.00000E+02  Y
      +115289.638+171.029111*T-59.2925239*T*LN(T)+.00154000821*T**2
     -4.58189862E-07*T**3+1511599.41*T**(-1);  1.40000E+03  Y
      +57220.6359+657.072083*T-127.203238*T*LN(T)+.0368029489*T**2
     -3.88681109E-06*T**3+10816764*T**(-1);  2.30000E+03  Y
      +1148003.41-4854.52191*T+585.121822*T*LN(T)-.170713155*T**2
     +7.48994642E-06*T**3-3.03539542E+08*T**(-1);  3.40000E+03  Y
      -1911361.54+6239.75943*T-781.526685*T*LN(T)+.101256603*T**2
     -2.68098504E-06*T**3+9.8372401E+08*T**(-1);  4.90000E+03  Y
      -230688.021+1686.54018*T-242.714457*T*LN(T)+.0244378074*T**2
     -6.26599166E-07*T**3;  6.00000E+03  Y
      1000000;  6.00100E+03  N !
 FUNCTION GZ10567    2.98150E+02  -825498.192+85.4568174*T
     -56.3859234*T*LN(T)-.027193744*T**2+5.36459601E-06*T**3
     +231624.663*T**(-1);  7.00000E+02  Y
      -836977.138+254.369636*T-82.4585286*T*LN(T)-1.65586031E-04*T**2
     +4.28593284E-09*T**3+1209786.1*T**(-1);  2.80000E+03  Y
      -856541.879+355.646691*T-95.5828568*T*LN(T)+.00370880077*T**2
     -2.07506161E-07*T**3+6660398.03*T**(-1);  5.10000E+03  Y
      -398621.37-823.958855*T+43.1407495*T*LN(T)-.0151195793*T**2
     +2.75074275E-07*T**3-2.79262754E+08*T**(-1);  8.40000E+03  Y
      -1914094.01+1649.24016*T-231.058474*T*LN(T)+.00706639686*T**2
     -6.34701583E-08*T**3+1.30131636E+09*T**(-1);  1.20000E+04  Y
      1000000;  1.20010E+04  N !
 FUNCTION GZ10571    2.98150E+02  +526216.395+14.3054553*T
     -32.6070463*T*LN(T)+.0113664378*T**2-2.44918107E-06*T**3
     +153009.401*T**(-1);  1.00000E+03  Y
      +546793.225-193.157123*T-2.66158929*T*LN(T)-.00840147208*T**2
     +4.95245991E-08*T**3-2547926.24*T**(-1);  2.30000E+03  Y
      +619703.947-556.552894*T+44.2406232*T*LN(T)-.0219862557*T**2
     +7.96946526E-07*T**3-24066006.3*T**(-1);  4.30000E+03  Y
      +36051.2614+1123.88875*T-156.345106*T*LN(T)+.00887660642*T**2
     -1.00110293E-07*T**3+2.96593112E+08*T**(-1);  6.80000E+03  Y
      +104248.452+1049.2954*T-148.777142*T*LN(T)+.00893283341*T**2
     -1.17016546E-07*T**3+2.12385891E+08*T**(-1);  9.80000E+03  Y
      +1211840.68-479.706752*T+17.3353036*T*LN(T)-.00227244582*T**2
     +2.64522358E-08*T**3-1.18794564E+09*T**(-1);  1.20000E+04  Y
      1000000;  1.20010E+04  N !
 FUNCTION GZ10572    2.98150E+02  +574491.915+82.1041496*T-38.69111*T*LN(T)
     +.01152846*T**2-1.693255E-06*T**3+270638.8*T**(-1);  7.00000E+02  Y
      +583605.367-18.3660207*T-24.06106*T*LN(T)+.001743641*T**2
     -5.94312333E-07*T**3-748947.5*T**(-1);  1.30000E+03  Y
      +581456.747-38.333425*T-20.46361*T*LN(T)-.002961084*T**2
     +1.08391433E-07*T**3+526352.5*T**(-1);  2.70000E+03  Y
      +618360.125-154.27834*T-6.647343*T*LN(T)-.0046738955*T**2
     +1.06833583E-07*T**3-15872340*T**(-1);  6.60000E+03  Y
      +491875.345+139.500851*T-40.68801*T*LN(T)-6.38357E-04*T**2
     +1.79125333E-08*T**3+71496950*T**(-1);  1.00000E+04  Y
      1000000;  1.00010E+04  N !
 FUNCTION GZ10573    2.98150E+02  +902278.676+40.4486131*T-37.13672*T*LN(T)
     -3.2039655E-04*T**2-4.30605167E-09*T**3+85422.15*T**(-1);  3.60000E+03  
     Y
      +883632.57+64.2098674*T-39.33356*T*LN(T)-.001019669*T**2
     +6.09799667E-08*T**3+14065805*T**(-1);  6.00000E+03  Y
      1000000;  6.00100E+03  N !
 FUNCTION GZ10042    2.98150E+02  +13265.87+117.57557*T-23.5143*T*LN(T)
     -.00439752*T**2-5.89269E-08*T**3+77358.5*T**(-1)-3.6751551E-21*T**7;  
     1.81100E+03  Y
      -10838.83+291.302*T-46*T*LN(T);  6.00000E+03  N !
 FUNCTION GZ10043    2.98150E+02  -565673.46+2216.11987*T-308.911161*T*LN(T)
     +.083394111*T**2-5.36172E-06*T**3+66417653*T**(-1);   6.00000E+03   N !
 FUNCTION GZ10044    2.98150E+02  +.5*GLFE2O3#;   6.00000E+03   N !
 FUNCTION GZ10050    2.98150E+02  -2648.9+31.44*T+.5*GZ10561#;   6.00000E+03 
       N !
 FUNCTION GZ10052    2.98150E+02  +GLU1O2#;   6.00000E+03   N !
 FUNCTION GZ10053    2.98150E+02  +GLZR1O2#;   6.00000E+03   N !
 FUNCTION GZ10055    2.98150E+02  +3947.76592+120.631251*T-26.9182*T*LN(T)
     +.00125156*T**2-4.42605E-06*T**3+38568.1*T**(-1);  9.55000E+02  Y
      -10166.2998+281.797193*T-48.66*T*LN(T);  6.00000E+03  N !
 FUNCTION GZ10056    2.98150E+02  +10320.0953+116.568238*T-24.1618*T*LN(T)
     -.00437791*T**2+34971*T**(-1)+1.6275E-22*T**7;  2.12800E+03  Y
      -8281.25969+253.812609*T-42.144*T*LN(T);  6.00000E+03  N !
 FUNCTION GZ10115    2.98150E+02  -320193.743+799.84028*T-117.480964*T*LN(T)
     +.0121694277*T**2+18691646*T**(-1);   6.00000E+03   N !
 FUNCTION GZ10117    2.98150E+02  +50000+.5*GZ10561#;   6.00000E+03   N !
 FUNCTION GZ10118    2.98150E+02  +GUO2#;   6.00000E+03   N !
 FUNCTION GZ10119    2.98150E+02  +GZRO2#;   6.00000E+03   N !
 FUNCTION GZ10120    2.98150E+02  +50000+GZ10169#;   6.00000E+03   N !
 FUNCTION GZ10121    2.98150E+02  +50000+GZ10142#;   6.00000E+03   N !
 FUNCTION GZ10195    2.98150E+02  -310193.743+799.84028*T-117.480964*T*LN(T)
     +.0121694277*T**2+18691646*T**(-1);   6.00000E+03   N !
 FUNCTION GZ10196    2.98150E+02  +50000+.5*GFE2O3#;   6.00000E+03   N !
 FUNCTION GZ10198    2.98150E+02  +T+GZ10118#;   6.00000E+03   N !
 FUNCTION GZ10199    2.98150E+02  +GTETO2ZR#;   6.00000E+03   N !
 FUNCTION GZ10189    2.98150E+02  +21814+14.286*T+.5*GZ10118#+.5*GZ10169#;   
     6.00000E+03   N !
 FUNCTION GZ10190    2.98150E+02  +50000+.5*GZ10119#+.5*GZ10142#;   
     6.00000E+03   N !
 FUNCTION GZ10191    2.98150E+02  +20000+GZ10169#;   6.00000E+03   N !
 FUNCTION GZ10192    2.98150E+02  +7600-.9*T+GZ10142#;   6.00000E+03   N !
 FUNCTION GZ10101    2.98150E+02  +850000+.5*GZ10118#+.5*GZ10055#;   
     6.00000E+03   N !
 FUNCTION GZ10102    2.98150E+02  +20000+GZ10169#;   6.00000E+03   N !
 FUNCTION GZ10067    2.98150E+02  +GHSERFE#;   6.00000E+03   N !
 FUNCTION GZ10071    2.98150E+02  -752.767048+131.5381*T-27.5152*T*LN(T)
     -.00835595*T**2+9.67906667E-07*T**3+204611*T**(-1);  1.04900E+03  Y
      -4698.36545+202.685635*T-38.2836*T*LN(T);  6.00000E+03  N !
 FUNCTION GZ10072    2.98150E+02  -525.538691+124.9457*T-25.607406*T*LN(T)
     -3.40084E-04*T**2-9.7289735E-09*T**3+25233*T**(-1)-7.6142894E-11*T**4;  
     2.12800E+03  Y
      -30705.9547+264.284163*T-42.144*T*LN(T)+1.27605754E+32*T**(-9);  
     6.00000E+03  N !
 FUNCTION GZ10075    2.98150E+02  +100000+.5*GZ10561#+GHSERFE#;   
     6.00000E+03   N !
 FUNCTION GZ10078    2.98150E+02  -272189.68+507.83504*T-88.701*T*LN(T)
     -.0072448*T**2+504516*T**(-1);   6.00000E+03   N !
 FUNCTION GZ10079    2.98150E+02  -978407.6+332.0716*T-18.267556*T*LN(T)
     +.001160192*T**2+6.4E-08*T**3+782500*T**(-1)+.5*GZ10561#;   6.00000E+03 
       N !
 FUNCTION GFEFCC     2.98150E+02  -236.7+132.416*T-24.6643*T*LN(T)
     -.00375752*T**2-5.89269E-08*T**3+77358.5*T**(-1);  1.81100E+03  Y
      -27097.396+300.25256*T-46*T*LN(T)+2.78854E+31*T**(-9);  6.00000E+03  N 
     !
 FUNCTION GZ10092    2.98150E+02  +20000+GZ10071#;   6.00000E+03   N !
 FUNCTION GZ10093    2.98150E+02  +7600-.9*T+GZ10142#;   6.00000E+03   N !
 FUNCTION GZ10134    2.98150E+02  +100000+.5*GZ10561#+GHSERFE#;   
     6.00000E+03   N !
 FUNCTION GZ10139    2.98150E+02  +100000+.5*GZ10561#+GZ10169#;   
     6.00000E+03   N !
 FUNCTION GZ10140    2.98150E+02  -290860.6+101.806875*T-7.1243205*T*LN(T)
     +.5*GZ10561#;   6.00000E+03   N !
 FUNCTION GZ10133    2.98150E+02  -2480.08+136.725*T-24.6643*T*LN(T)
     -.00375752*T**2-5.89269E-08*T**3+77358.5*T**(-1);  1.81100E+03  Y
      -29340.78+304.56206*T-46*T*LN(T)+2.78854E+31*T**(-9);  6.00000E+03  N !
 FUNCTION GZ10141    2.98150E+02  +50000+GZ10169#;   6.00000E+03   N !
 FUNCTION GZ10142    1.30000E+02  -7827.59469+125.64905*T-24.1618*T*LN(T)
     -.00437791*T**2+34971*T**(-1);  2.12800E+03  Y
      -26085.9207+262.724183*T-42.144*T*LN(T)-1.34289552E+31*T**(-9);  
     6.00000E+03  N !
 FUNCTION GZ10146    2.98150E+02  +15000+3*GHSERFE#;   6.00000E+03   N !
 FUNCTION GZ10147    2.98150E+02  -80920.7732+452.064542*T
     -81.8245519*T*LN(T)-.0147860686*T**2-7.2962126E-07*T**3
     -18441.518*T**(-1);  1.26400E+03  Y
      -32610882.2+267532.093*T-37284.9245*T*LN(T)+18.8962574*T**2
     -.0018033415*T**3+5.3331998E+09*T**(-1);  1.42000E+03  Y
      -1.03577348E+09+7899832.41*T-1087503.37*T*LN(T)+507.588641*T**2
     -.044444013*T**3+1.8501054E+11*T**(-1);  1.48770E+03  Y
      -60927874.2+894709.247*T-133008.569*T*LN(T)+96.3201481*T**2
     -.011588496*T**3;  1.50860E+03  Y
      -110064.941+863.193967*T-138.072*T*LN(T);  6.00000E+03  N !
 FUNCTION GZ10148    2.98150E+02  -96080.39+413.1514*T-75.250722*T*LN(T)
     -.009450156*T**2-6.6171E-07*T**3+296355*T**(-1);   6.00000E+03   N !
 FUNCTION GZ10149    2.98150E+02  +15000+2*GZ10142#+GHSERFE#;   6.00000E+03  
      N !
 FUNCTION GZ10150    2.98150E+02  +15000+2*GZ10142#+GZ10169#;   6.00000E+03  
      N !
 FUNCTION GZ10151    2.98150E+02  +15000+3*GZ10142#;   6.00000E+03   N !
 FUNCTION GZ10109    2.98150E+02  -370193.743+799.84028*T-117.480964*T*LN(T)
     +.0121694277*T**2+18691646*T**(-1);   6.00000E+03   N !
 FUNCTION GZ10110    2.98150E+02  -430376+503.80278*T-80.2531*T*LN(T)
     +.002597293*T**2;   6.00000E+03   N !
 FUNCTION GZ10029    2.98150E+02  -1156298.45+541.900376*T
     -92.8138596*T*LN(T)-.107063026*T**2+3.1621345E-06*T**3
     +344210.526*T**(-1);  6.00000E+02  Y
      -1153512.94+527.483595*T-91.5424286*T*LN(T)-.100837143*T**2;  
     9.00000E+02  Y
      -1170195.47+1198.69712*T-200.832*T*LN(T);  2.50000E+03  Y
      1000000;  6.00000E+03  N !
 FUNCTION GZ10105    2.98150E+02  +.5*GFE2O3#;   6.00000E+03   N !
 FUNCTION GZ10167    2.98150E+02  16000;   6.00000E+03   N !
 FUNCTION GZ10169    2.98150E+02  -8407.73408+130.955151*T-26.9182*T*LN(T)
     +.00125156*T**2-4.42605E-06*T**3+38568.1*T**(-1);  9.55000E+02  Y
      -22521.7998+292.121093*T-48.66*T*LN(T);  6.00000E+03  N !
 FUNCTION GZ10170    2.98150E+02  38000;   6.00000E+03   N !
 FUNCTION GZ10179    2.98150E+02  15000;   6.00000E+03   N !
 FUNCTION GZ10181    2.98150E+02  -5156.13566+106.976316*T-22.841*T*LN(T)
     -.01084475*T**2+2.78888333E-08*T**3+81944*T**(-1);  9.41500E+02  Y
      -14327.3092+244.16802*T-42.9278*T*LN(T);  6.00000E+03  N !
 FUNCTION GZ10182    2.98150E+02  35000;   6.00000E+03   N !
 FUNCTION GZ10183    2.98150E+02  +8.06286*T;   6.00000E+03   N !
 FUNCTION GZ10184    2.98150E+02  +6.41487*T;   6.00000E+03   N !
 FUNCTION GZ10277    298.15 0.0; 6000.00  N !
 FUNCTION GZ10283    2.98000E+02  -82454.6183+293.079181*T-72.87*T*LN(T)
     -.2506*T**2+5.9523333E-05*T**3-539.90545*T**(-1);  7.00000E+02  Y
      -59338.6871+603.998215*T-137.9119*T*LN(T)-.078386*T**2
     +8.8708317E-06*T**3-6653346*T**(-1);  8.25000E+02  Y
      -856026.49+10683.1506*T-1648.01*T*LN(T)+1.1919075*T**2
     -1.91212E-04*T**3+72031487*T**(-1);  1.20000E+03  Y
      100000;  6.00000E+03  N !
 FUNCTION GZ10284    2.98150E+02  -59993.01+379.88505*T-71.831892*T*LN(T)
     -.013148553*T**2-5.958E-08*T**3+148011*T**(-1);   6.00000E+03   N !
 FUNCTION GZ10285    2.98150E+02  -93163.16+527.78636*T-95.996692*T*LN(T)
     -.01751556*T**2-6.18E-08*T**3+183160*T**(-1);   6.00000E+03   N !
 FUNCTION GZ10286    2.98150E+02  -23200190+2728.08*T;   6.00000E+03   N !
 FUNCTION GZ10319    298.15 0.0; 6000.00  N !
 FUNCTION GZ10324    2.98150E+02  +GO3U1#;   6.00000E+03   N !
 FUNCTION GZ10325    2.98150E+02  +GO8U3#;   6.00000E+03   N !
 FUNCTION GZ10326    2.98150E+02  +GO9U4#;   6.00000E+03   N !
 FUNCTION GZ10327    2.98150E+02  +GMONOCLI#;   6.00000E+03   N !
 FUNCTION GZ10342    298.15 0.0; 6000.00  N !
 FUNCTION GZ10343    298.15 0.0; 6000.00  N !
 FUNCTION GZ10345    2.98150E+02  -1624428.88+727.715681*T-127*T*LN(T)
     -.0185*T**2+539550*T**(-1);   6.00000E+03   N !
 FUNCTION GZ10346    2.98150E+02  -18096.07+.990208*T;   6.00000E+03   N !
 FUNCTION GZ10347    2.98150E+02  -4370;   6.00000E+03   N !
 FUNCTION GZ10348    2.98150E+02  -23655.02+2.1839*T;   6.00000E+03   N !
 FUNCTION GLFE2O3    2.98150E+02  -746039.243+159.034408*T
     -32.2626273*T*LN(T)-.154285412*T**2+3.64843803E-05*T**3
     +37453.9158*T**(-1);  5.50000E+02  Y
      -794897.593+1105.14297*T-185.61219*T*LN(T)+.0593865092*T**2
     -1.91738462E-05*T**3+2961136.13*T**(-1);  7.50000E+02  Y
      -793405.497+1428.11113*T-243.687744*T*LN(T)+.166060584*T**2
     -4.62574239E-05*T**3;  9.00000E+02  Y
      -56312596+626771.015*T-92071.7025*T*LN(T)+67.6823486*T**2
     -.00935581572*T**3+6.29497557E+09*T**(-1);  9.56000E+02  Y
      +1.69611746E+10-1.81003483E+08*T+26334225.1*T*LN(T)-18171.5961*T**2
     +2.3510906*T**3-2.04849739E+12*T**(-1);  9.70000E+02  Y
      +6.18357333E+08-6481410.98*T+939922.663*T*LN(T)-634.464363*T**2
     +.0802975382*T**3-7.64640827E+10*T**(-1);  1.00000E+03  Y
      +14376008.7-149282.824*T+21428.5467*T*LN(T)-13.6771392*T**2
     +.00162819266*T**3-1.99621211E+09*T**(-1);  1.05000E+03  Y
      -760264.079+751.586044*T-132.67*T*LN(T)-.003682*T**2;  1.34700E+03  Y
      -768106.01+830.135206*T-143.451429*T*LN(T);  6.00000E+03  N !
 FUNCTION GLU1O2     2.98150E+02  -1018368.29+403.261007*T-74.6514*T*LN(T)
     -.00610305*T**2+1.7213E-07*T**3+649010*T**(-1);  1.50000E+03  Y
      -1613739.87+4339.35405*T-604.679*T*LN(T)+.205276*T**2
     -1.58314833E-05*T**3+1.265805E+08*T**(-1);  2.59800E+03  Y
      -1115877.41+868.303475*T-130.959*T*LN(T);  6.00000E+03  N !
 FUNCTION GLZR1O2    2.98150E+02  -1031671.62+391.9331*T-69.6218*T*LN(T)
     -.0037656*T**2+702910*T**(-1);  1.47800E+03  Y
      -1035025.34+450.83609*T-78.1*T*LN(T);  2.20800E+03  Y
      -1083380.54+641.362639*T-100*T*LN(T);  6.00000E+03  N !
 FUNCTION GHSERFE    2.98150E+02  +1225.7+124.134*T-23.5143*T*LN(T)
     -.00439752*T**2-5.89269E-08*T**3+77358.5*T**(-1);  1.81100E+03  Y
      -25383.581+299.31255*T-46*T*LN(T)+2.2960305E+31*T**(-9);  6.00000E+03  
     N !
 FUNCTION GFE2O3     2.98150E+02  -846062.891+211.374129*T
     -32.2626273*T*LN(T)-.154285412*T**2+3.64843803E-05*T**3
     +37453.9158*T**(-1);  5.50000E+02  Y
      -894921.241+1157.48269*T-185.61219*T*LN(T)+.0593865092*T**2
     -1.91738462E-05*T**3+2961136.13*T**(-1);  7.50000E+02  Y
      -893429.145+1480.45085*T-243.687744*T*LN(T)+.166060584*T**2
     -4.62574239E-05*T**3;  9.00000E+02  Y
      -56412619.7+626823.355*T-92071.7025*T*LN(T)+67.6823486*T**2
     -.00935581572*T**3+6.29497557E+09*T**(-1);  9.56000E+02  Y
      +1.69610752E+10-1.81003432E+08*T+26334225.1*T*LN(T)-18171.5961*T**2
     +2.3510906*T**3-2.04849739E+12*T**(-1);  9.70000E+02  Y
      +6.18257978E+08-6481359.34*T+939922.663*T*LN(T)-634.464363*T**2
     +.0802975382*T**3-7.64640827E+10*T**(-1);  1.00000E+03  Y
      +14276654.1-149231.185*T+21428.5467*T*LN(T)-13.6771392*T**2
     +.00162819266*T**3-1.99621211E+09*T**(-1);  1.05000E+03  Y
      -859618.727+803.225975*T-132.67*T*LN(T)-.003682*T**2;  6.00000E+03  N !
 FUNCTION GUO2       2.98150E+02  -1112055.29+433.851907*T-74.6514*T*LN(T)
     -.00610305*T**2+1.7213E-07*T**3+649010*T**(-1);  1.50000E+03  Y
      -1707426.87+4369.94495*T-604.679*T*LN(T)+.205276*T**2
     -1.58314833E-05*T**3+1.265805E+08*T**(-1);  2.67000E+03  Y
      -1303255.56+1218.63701*T-167.038*T*LN(T);  6.00000E+03  N !
 FUNCTION GZRO2      2.98150E+02  -1113681+491.486437*T-80*T*LN(T);   
     6.00000E+03   N !
 FUNCTION GTETO2ZR   2.98150E+02  -1121646.51+479.515703*T-78.1*T*LN(T);   
     6.00000E+03   N !
 FUNCTION GO3U1      2.98150E+02  -1254274.53+507.969275*T
     -88.7009996*T*LN(T)-.00724479989*T**2+504515*T**(-1);  1.50000E+03  Y
      1000000;  6.00000E+03  N !
 FUNCTION GO8U3      2.98150E+02  -3757004.9+3598.46802*T-611.679311*T*LN(T)
     +.56012754*T**2-1.84496409E-04*T**3+6125573.12*T**(-1);  4.30000E+02  Y
      -3713067.3+3855.55052*T-691.623743*T*LN(T)+1.0284935*T**2
     -4.15785452E-04*T**3;  4.66000E+02  Y
      -2.11824711E+08+4093443.77*T-665467.061*T*LN(T)+944.831375*T**2
     -.251662047*T**3+1.22159968E+10*T**(-1);  4.82280E+02  Y
      +23768140.1-496787.939*T+79521.0349*T*LN(T)-103.160995*T**2
     +.0249998469*T**3-1.76708302E+09*T**(-1);  5.20000E+02  Y
      -13568444.8+178893.306*T-28588.9812*T*LN(T)+35.9957552*T**2
     -.00859187949*T**3+6.51132994E+08*T**(-1);  5.70000E+02  Y
      +29696877.3-533521.936*T+83425.2343*T*LN(T)-93.3944024*T**2
     +.019544783*T**3-2.49374387E+09*T**(-1);  6.00000E+02  Y
      -2372823.06-17215.0555*T+2612.09997*T*LN(T)-2.86955697*T**2
     +5.28132354E-04*T**3-1.07072548E+08*T**(-1);  7.00000E+02  Y
      -4401329.96+11838.6064*T-1840.06837*T*LN(T)+1.48520642*T**2
     -2.72513929E-04*T**3+66730371.8*T**(-1);  8.50200E+02  Y
      -1298406.16-22608.6652*T+3218.87706*T*LN(T)-2.3020294*T**2
     +2.79384136E-04*T**3-2.99292069E+08*T**(-1);  1.02000E+03  Y
      -3658949.79+1464.78256*T-256.435318*T*LN(T)-.0305604025*T**2
     +1.32655895E-06*T**3+999751.961*T**(-1);  3.00000E+03  Y
      1000000;  6.00000E+03  N !
 FUNCTION GO9U4      2.98150E+02  -4571334.84+553.522415*T
     -104.224003*T*LN(T)-.317913882*T**2;  3.15000E+02  Y
      -21527707.1+462627.937*T-80353.1345*T*LN(T)+168.721608*T**2
     -.0668610237*T**3+6.72731716E+08*T**(-1);  3.49100E+02  Y
      +6.82636436E+08-16813679.5*T+2855145.34*T*LN(T)-5273.46883*T**2
     +1.82622296*T**3-3.10155795E+10*T**(-1);  3.58000E+02  Y
      +8204367.23-295424.22*T+49607.7441*T*LN(T)-86.4392403*T**2
     +.0280551397*T**3-6.15931223E+08*T**(-1);  3.88000E+02  Y
      -4561894.7+719.842716*T-139.677002*T*LN(T)-.261806512*T**2
     +5.798585E-05*T**3-1519527.36*T**(-1);  5.80000E+02  Y
      -4620832.13+1881.86577*T-327.825923*T*LN(T)-.0057467735*T**2
     -5.50339833E-06*T**3+1721083.12*T**(-1);  1.40500E+03  Y
      -4615385.21+1686.32344*T-295.611643*T*LN(T)-.0426214296*T**2;  
     1.70500E+03  Y
      1000000;  6.00000E+03  N !
 FUNCTION GMONOCLI   2.98150E+02  -1126367.62+426.0761*T-69.6218*T*LN(T)
     -.0037656*T**2+702910*T**(-1);   6.00000E+03   N !
 FUNCTION UN_ASS 298.15 0; 300 N !
 
 TYPE_DEFINITION % SEQ *!
 DEFINE_SYSTEM_DEFAULT ELEMENT 2 !
 DEFAULT_COMMAND DEF_SYS_ELEMENT VA /- !


 PHASE GAS:G %  1  1.0  !
    CONSTITUENT GAS:G :FE1,FE1O1,FE2,O1,O1U1,O1ZR1,O2,O2U1,O2ZR1,O3,O3U1,U1,
    ZR1,ZR2 :  !

   PARAMETER G(GAS,FE1;0)  2.98150E+02  +GZ10531#;   6.00000E+03   N REF0 !
   PARAMETER G(GAS,FE1O1;0)  2.98150E+02  +GZ10533#;   6.00000E+03   N REF0 !
   PARAMETER G(GAS,FE2;0)  2.98150E+02  +GZ10534#;   6.00000E+03   N REF0 !
   PARAMETER G(GAS,O1;0)  2.98150E+02  +GZ10557#;   6.00000E+03   N REF0 !
   PARAMETER G(GAS,O1U1;0)  2.98150E+02  +GZ10559#;   6.00000E+03   N REF0 !
   PARAMETER G(GAS,O1ZR1;0)  2.98150E+02  +GZ10560#;   6.00000E+03   N REF0 !
   PARAMETER G(GAS,O2;0)  2.98150E+02  +GZ10561#;   6.00000E+03   N REF0 !
   PARAMETER G(GAS,O2U1;0)  2.98150E+02  +GZ10564#;   6.00000E+03   N REF0 !
   PARAMETER G(GAS,O2ZR1;0)  2.98150E+02  +GZ10565#;   6.00000E+03   N REF0 !
   PARAMETER G(GAS,O3;0)  2.98150E+02  +GZ10566#;   6.00000E+03   N REF0 !
   PARAMETER G(GAS,O3U1;0)  2.98150E+02  +GZ10567#;   6.00000E+03   N REF0 !
   PARAMETER G(GAS,U1;0)  2.98150E+02  +GZ10571#;   6.00000E+03   N REF0 !
   PARAMETER G(GAS,ZR1;0)  2.98150E+02  +GZ10572#;   6.00000E+03   N REF0 !
   PARAMETER G(GAS,ZR2;0)  2.98150E+02  +GZ10573#;   6.00000E+03   N REF0 !


 PHASE LIQUID:L %  1  1.0  !
    CONSTITUENT LIQUID:L :FE1,FE1O1,FE1O1_5,O1,O2U1,O2ZR1,U1,ZR1 :  !

   PARAMETER G(LIQUID,FE1;0)  2.98150E+02  +GZ10042#;   6.00000E+03   N REF0 !
   PARAMETER G(LIQUID,FE1O1;0)  2.98150E+02  +GZ10043#;   6.00000E+03   N 
  REF0 !
   PARAMETER G(LIQUID,FE1O1_5;0)  2.98150E+02  +GZ10044#;   6.00000E+03   N 
  REF0 !
   PARAMETER G(LIQUID,O1;0)  2.98150E+02  +GZ10050#;   6.00000E+03   N REF0 !
   PARAMETER G(LIQUID,O2U1;0)  2.98150E+02  +GZ10052#;   6.00000E+03   N 
  REF0 !
   PARAMETER G(LIQUID,O2ZR1;0)  2.98150E+02  +GZ10053#;   6.00000E+03   N 
  REF0 !
   PARAMETER G(LIQUID,U1;0)  2.98150E+02  +GZ10055#;   6.00000E+03   N REF0 !
   PARAMETER G(LIQUID,ZR1;0)  2.98150E+02  +GZ10056#;   6.00000E+03   N REF0 !
   PARAMETER G(LIQUID,FE1,FE1O1;0)  2.98150E+02  +105709.17-20.78181*T;   
  6.00000E+03   N REF0 !
   PARAMETER G(LIQUID,FE1,FE1O1;1)  2.98150E+02  +55277.06-22.76218*T;   
  6.00000E+03   N REF0 !
   PARAMETER G(LIQUID,FE1,FE1O1_5;0)  2.98150E+02  +105709.17-20.78181*T;   
  6.00000E+03   N REF0 !
   PARAMETER G(LIQUID,FE1,FE1O1_5;1)  2.98150E+02  +55277.06-22.76218*T;   
  6.00000E+03   N REF0 !
   PARAMETER G(LIQUID,FE1,O1;0)  2.98150E+02  100000;   6.00000E+03   N REF0 !
   PARAMETER G(LIQUID,FE1,O2U1;0)  2.98150E+02  160000;   6.00000E+03   N 
  REF0 !
   PARAMETER G(LIQUID,FE1,O2ZR1;0)  2.98150E+02  110000;   6.00000E+03   N 
  REF0 !
   PARAMETER G(LIQUID,FE1,U1;0)  2.98150E+02  -51841.89+3.11605*T;   
  6.00000E+03   N REF0 !
   PARAMETER G(LIQUID,FE1,U1;1)  2.98150E+02  -27027.67+6.63608*T;   
  6.00000E+03   N REF0 !
   PARAMETER G(LIQUID,FE1,U1;2)  2.98150E+02  +4095.31+6.42559*T;   
  6.00000E+03   N REF0 !
   PARAMETER G(LIQUID,FE1,U1;3)  2.98150E+02  +33353.49-18.52238*T;   
  6.00000E+03   N REF0 !
   PARAMETER G(LIQUID,FE1,ZR1;0)  2.98150E+02  -87249.42+21.84721*T;   
  6.00000E+03   N REF0 !
   PARAMETER G(LIQUID,FE1,ZR1;1)  2.98150E+02  -15728.86+3.73201*T;   
  6.00000E+03   N REF0 !
   PARAMETER G(LIQUID,FE1,ZR1;2)  2.98150E+02  -3589;   6.00000E+03   N REF0 !
   PARAMETER G(LIQUID,FE1,ZR1;3)  2.98150E+02  19396.61;   6.00000E+03   N 
  REF0 !
   PARAMETER G(LIQUID,FE1O1,FE1O1_5;0)  2.98150E+02  -13927.36;   
  6.00000E+03   N REF0 !
   PARAMETER G(LIQUID,FE1O1,FE1O1_5;1)  2.98150E+02  4201.12;   6.00000E+03  
   N REF0 !
   PARAMETER G(LIQUID,FE1O1,O1;0)  2.98150E+02  100000;   6.00000E+03   N 
  REF0 !
   PARAMETER G(LIQUID,FE1O1,O2U1;0)  2.98150E+02  -15591.37;   6.00000E+03   
  N REF0 !
   PARAMETER G(LIQUID,FE1O1,O2U1;1)  2.98150E+02  8855.5;   6.00000E+03   N 
  REF0 !
   PARAMETER G(LIQUID,FE1O1,O2ZR1;0)  2.98150E+02  -3956.97;   6.00000E+03   
  N REF0 !
   PARAMETER G(LIQUID,FE1O1,O2ZR1;1)  2.98150E+02  4906.83;   6.00000E+03   
  N REF0 !
   PARAMETER G(LIQUID,FE1O1,O2ZR1;2)  2.98150E+02  -10800.31;   6.00000E+03  
   N REF0 !
   PARAMETER G(LIQUID,FE1O1,U1;0)  2.98150E+02  50000;   6.00000E+03   N 
  REF0 !
   PARAMETER G(LIQUID,FE1O1,ZR1;0)  2.98150E+02  50000;   6.00000E+03   N 
  REF0 !
   PARAMETER G(LIQUID,FE1O1_5,O1;0)  2.98150E+02  100000;   6.00000E+03   N 
  REF0 !